Maximize
F - f1 - f2

Subject to
F - 2y60 - 4y170 - 2y3 - 6y186 - 6y81 - 2y14 - 2y138 - 2y182 - 4y127 - 4y52 - 4y91 - 6y171 - 8y31 - 2y105 - 4y119 - 8y80 - 4y101 - 8y89 - 4y77 = 0
f1 - 0.006700s60 - 0.006700s170 - 0.006700s3 - 0.006700s186 - 0.006700s81 - 0.006700s14 - 0.006700s138 - 0.006700s182 - 0.006700s127 - 0.006700s52 - 0.006700s91 - 0.006700s171 - 0.006700s31 - 0.006700s105 - 0.006700s119 - 0.006700s80 - 0.006700s101 - 0.006700s89 - 0.006700s77  = 0
f2 - 2.18y60 - 2.13y170 - 2.14y3 - 1.90y186 - 1.85y81 - 1.86y14 - 2.09y138 - 2.08y182 - 2.16y127 - 1.00y52 - 2.45y91 - 2.06y171 - 2.25y31 - 0.99y105 - 2.32y119 - 1.01y80 - 0.93y101 - 0.94y89 - 0.87y77 = 0

x118x60x1 + x118x3x1 + x118x186x1 + x118x52x1 + x118x171x1 + x118x31x1 + x118x119x1 + x118x80x1 + x118x101x1 
<= 1
x69x60x1 + x69x3x1 + x69x186x1 + x69x52x1 + x69x171x1 + x69x31x1 + x69x119x1 + x69x80x1 + x69x101x1 
<= 1
x185x60x1 + x185x3x1 + x185x186x1 + x185x52x1 + x185x171x1 + x185x31x1 + x185x119x1 + x185x80x1 + x185x101x1 
<= 1
x58x60x1 + x58x3x1 + x58x186x1 + x58x52x1 + x58x171x1 + x58x31x1 + x58x119x1 + x58x80x1 + x58x101x1 
<= 1
x74x60x1 + x74x3x1 + x74x186x1 + x74x52x1 + x74x171x1 + x74x31x1 + x74x119x1 + x74x80x1 + x74x101x1 
<= 1
x2x60x1 + x2x3x1 + x2x186x1 + x2x52x1 + x2x171x1 + x2x31x1 + x2x119x1 + x2x80x1 + x2x101x1 
<= 1
x139x60x1 + x139x3x1 + x139x186x1 + x139x52x1 + x139x171x1 + x139x31x1 + x139x119x1 + x139x80x1 + x139x101x1 
<= 1
x17x60x1 + x17x3x1 + x17x186x1 + x17x52x1 + x17x171x1 + x17x31x1 + x17x119x1 + x17x80x1 + x17x101x1 
<= 1

x185x60x2 + x185x170x2 + x185x81x2 + x185x14x2 + x185x182x2 + x185x52x2 + x185x89x2 + x185x77x2 
<= 1
x58x60x2 + x58x170x2 + x58x81x2 + x58x14x2 + x58x182x2 + x58x52x2 + x58x89x2 + x58x77x2 
<= 1
x74x60x2 + x74x170x2 + x74x81x2 + x74x14x2 + x74x182x2 + x74x52x2 + x74x89x2 + x74x77x2 
<= 1
x43x60x2 + x43x170x2 + x43x81x2 + x43x14x2 + x43x182x2 + x43x52x2 + x43x89x2 + x43x77x2 
<= 2
x139x60x2 + x139x170x2 + x139x81x2 + x139x14x2 + x139x182x2 + x139x52x2 + x139x89x2 + x139x77x2 
<= 1
x124x60x2 + x124x170x2 + x124x81x2 + x124x14x2 + x124x182x2 + x124x52x2 + x124x89x2 + x124x77x2 
<= 1
x17x60x2 + x17x170x2 + x17x81x2 + x17x14x2 + x17x182x2 + x17x52x2 + x17x89x2 + x17x77x2 
<= 1

x118x81x3 + x118x138x3 + x118x182x3 + x118x127x3 + x118x91x3 + x118x31x3 + x118x105x3 + x118x80x3 + x118x101x3 + x118x89x3 
<= 1
x69x81x3 + x69x138x3 + x69x182x3 + x69x127x3 + x69x91x3 + x69x31x3 + x69x105x3 + x69x80x3 + x69x101x3 + x69x89x3 
<= 1
x2x81x3 + x2x138x3 + x2x182x3 + x2x127x3 + x2x91x3 + x2x31x3 + x2x105x3 + x2x80x3 + x2x101x3 + x2x89x3 
<= 1
x160x81x3 + x160x138x3 + x160x182x3 + x160x127x3 + x160x91x3 + x160x31x3 + x160x105x3 + x160x80x3 + x160x101x3 + x160x89x3 
<= 2
x124x81x3 + x124x138x3 + x124x182x3 + x124x127x3 + x124x91x3 + x124x31x3 + x124x105x3 + x124x80x3 + x124x101x3 + x124x89x3 
<= 1
x23x81x3 + x23x138x3 + x23x182x3 + x23x127x3 + x23x91x3 + x23x31x3 + x23x105x3 + x23x80x3 + x23x101x3 + x23x89x3 
<= 2
x118x60x1 + x69x60x1 + x185x60x1 + x58x60x1 + x74x60x1 + x2x60x1 + x139x60x1 + x17x60x1 
- x60x0x1
- x60x3x1 - x60x186x1 - x60x52x1 - x60x171x1 - x60x31x1 - x60x119x1 - x60x80x1 - x60x101x1 
= 0
x185x60x2 + x58x60x2 + x74x60x2 + x43x60x2 + x139x60x2 + x124x60x2 + x17x60x2 
- x60x0x2
- x60x81x2 - x60x14x2 - x60x182x2 - x60x52x2 - x60x89x2 - x60x77x2 
= 0



x185x170x2 + x58x170x2 + x74x170x2 + x43x170x2 + x139x170x2 + x124x170x2 + x17x170x2 
- x170x0x2
- x170x81x2 - x170x14x2 - x170x182x2 - x170x52x2 - x170x89x2 - x170x77x2 
= 0


x118x3x1 + x69x3x1 + x185x3x1 + x58x3x1 + x74x3x1 + x2x3x1 + x139x3x1 + x17x3x1 + x60x3x1 
- x3x0x1
- x3x186x1 - x3x52x1 - x3x171x1 - x3x31x1 - x3x119x1 - x3x80x1 - x3x101x1 
= 0



x118x186x1 + x69x186x1 + x185x186x1 + x58x186x1 + x74x186x1 + x2x186x1 + x139x186x1 + x17x186x1 + x60x186x1 + x3x186x1 
- x186x0x1
- x186x52x1 - x186x171x1 - x186x31x1 - x186x119x1 - x186x80x1 - x186x101x1 
= 0




x185x81x2 + x58x81x2 + x74x81x2 + x43x81x2 + x139x81x2 + x124x81x2 + x17x81x2 + x60x81x2 + x170x81x2 
- x81x0x2
- x81x14x2 - x81x182x2 - x81x52x2 - x81x89x2 - x81x77x2 
= 0
x118x81x3 + x69x81x3 + x2x81x3 + x160x81x3 + x124x81x3 + x23x81x3 
- x81x0x3
- x81x138x3 - x81x182x3 - x81x127x3 - x81x91x3 - x81x31x3 - x81x105x3 - x81x80x3 - x81x101x3 - x81x89x3 
= 0


x185x14x2 + x58x14x2 + x74x14x2 + x43x14x2 + x139x14x2 + x124x14x2 + x17x14x2 + x60x14x2 + x170x14x2 + x81x14x2 
- x14x0x2
- x14x52x2 - x14x89x2 - x14x77x2 
= 0




x118x138x3 + x69x138x3 + x2x138x3 + x160x138x3 + x124x138x3 + x23x138x3 + x81x138x3 
- x138x0x3
- x138x182x3 - x138x127x3 - x138x91x3 - x138x31x3 - x138x105x3 - x138x80x3 - x138x101x3 - x138x89x3 
= 0


x185x182x2 + x58x182x2 + x74x182x2 + x43x182x2 + x139x182x2 + x124x182x2 + x17x182x2 + x60x182x2 + x170x182x2 + x81x182x2 
- x182x0x2
- x182x89x2 - x182x77x2 
= 0
x118x182x3 + x69x182x3 + x2x182x3 + x160x182x3 + x124x182x3 + x23x182x3 + x81x182x3 + x138x182x3 
- x182x0x3
- x182x127x3 - x182x91x3 - x182x31x3 - x182x80x3 - x182x101x3 - x182x89x3 
= 0



x118x127x3 + x69x127x3 + x2x127x3 + x160x127x3 + x124x127x3 + x23x127x3 + x81x127x3 + x138x127x3 + x182x127x3 
- x127x0x3
- x127x91x3 - x127x31x3 - x127x101x3 - x127x89x3 
= 0

x118x52x1 + x69x52x1 + x185x52x1 + x58x52x1 + x74x52x1 + x2x52x1 + x139x52x1 + x17x52x1 + x60x52x1 + x3x52x1 + x186x52x1 
- x52x0x1
- x52x80x1 - x52x101x1 
= 0
x185x52x2 + x58x52x2 + x74x52x2 + x43x52x2 + x139x52x2 + x124x52x2 + x17x52x2 + x60x52x2 + x170x52x2 + x81x52x2 + x14x52x2 
- x52x0x2
- x52x89x2 - x52x77x2 
= 0




x118x91x3 + x69x91x3 + x2x91x3 + x160x91x3 + x124x91x3 + x23x91x3 + x81x91x3 + x138x91x3 + x182x91x3 + x127x91x3 
- x91x0x3

= 0

x118x171x1 + x69x171x1 + x185x171x1 + x58x171x1 + x74x171x1 + x2x171x1 + x139x171x1 + x17x171x1 + x60x171x1 + x3x171x1 + x186x171x1 
- x171x0x1
- x171x119x1 
= 0



x118x31x1 + x69x31x1 + x185x31x1 + x58x31x1 + x74x31x1 + x2x31x1 + x139x31x1 + x17x31x1 + x60x31x1 + x3x31x1 + x186x31x1 
- x31x0x1
- x31x119x1 
= 0

x118x31x3 + x69x31x3 + x2x31x3 + x160x31x3 + x124x31x3 + x23x31x3 + x81x31x3 + x138x31x3 + x182x31x3 + x127x31x3 
- x31x0x3

= 0



x118x105x3 + x69x105x3 + x2x105x3 + x160x105x3 + x124x105x3 + x23x105x3 + x81x105x3 + x138x105x3 
- x105x0x3
- x105x80x3 - x105x101x3 - x105x89x3 
= 0

x118x119x1 + x69x119x1 + x185x119x1 + x58x119x1 + x74x119x1 + x2x119x1 + x139x119x1 + x17x119x1 + x60x119x1 + x3x119x1 + x186x119x1 + x171x119x1 + x31x119x1 
- x119x0x1

= 0



x118x80x1 + x69x80x1 + x185x80x1 + x58x80x1 + x74x80x1 + x2x80x1 + x139x80x1 + x17x80x1 + x60x80x1 + x3x80x1 + x186x80x1 + x52x80x1 
- x80x0x1

= 0

x118x80x3 + x69x80x3 + x2x80x3 + x160x80x3 + x124x80x3 + x23x80x3 + x81x80x3 + x138x80x3 + x182x80x3 + x105x80x3 
- x80x0x3
- x80x89x3 
= 0

x118x101x1 + x69x101x1 + x185x101x1 + x58x101x1 + x74x101x1 + x2x101x1 + x139x101x1 + x17x101x1 + x60x101x1 + x3x101x1 + x186x101x1 + x52x101x1 
- x101x0x1

= 0

x118x101x3 + x69x101x3 + x2x101x3 + x160x101x3 + x124x101x3 + x23x101x3 + x81x101x3 + x138x101x3 + x182x101x3 + x127x101x3 + x105x101x3 
- x101x0x3
- x101x89x3 
= 0


x185x89x2 + x58x89x2 + x74x89x2 + x43x89x2 + x139x89x2 + x124x89x2 + x17x89x2 + x60x89x2 + x170x89x2 + x81x89x2 + x14x89x2 + x182x89x2 + x52x89x2 
- x89x0x2
- x89x77x2 
= 0
x118x89x3 + x69x89x3 + x2x89x3 + x160x89x3 + x124x89x3 + x23x89x3 + x81x89x3 + x138x89x3 + x182x89x3 + x127x89x3 + x105x89x3 + x80x89x3 + x101x89x3 
- x89x0x3

= 0


x185x77x2 + x58x77x2 + x74x77x2 + x43x77x2 + x139x77x2 + x124x77x2 + x17x77x2 + x60x77x2 + x170x77x2 + x81x77x2 + x14x77x2 + x182x77x2 + x52x77x2 + x89x77x2 
- x77x0x2

= 0


1y60 - x118x60x1 - x69x60x1 - x185x60x1 - x58x60x1 - x74x60x1 - x2x60x1 - x139x60x1 - x17x60x1 = 0
1y60 - x185x60x2 - x58x60x2 - x74x60x2 - x43x60x2 - x139x60x2 - x124x60x2 - x17x60x2 = 0
2y170 - x185x170x2 - x58x170x2 - x74x170x2 - x43x170x2 - x139x170x2 - x124x170x2 - x17x170x2 = 0
2y3 - x118x3x1 - x69x3x1 - x185x3x1 - x58x3x1 - x74x3x1 - x2x3x1 - x139x3x1 - x17x3x1 - x60x3x1 = 0
2y186 - x118x186x1 - x69x186x1 - x185x186x1 - x58x186x1 - x74x186x1 - x2x186x1 - x139x186x1 - x17x186x1 - x60x186x1 - x3x186x1 = 0
1y81 - x185x81x2 - x58x81x2 - x74x81x2 - x43x81x2 - x139x81x2 - x124x81x2 - x17x81x2 - x60x81x2 - x170x81x2 = 0
1y81 - x118x81x3 - x69x81x3 - x2x81x3 - x160x81x3 - x124x81x3 - x23x81x3 = 0
2y14 - x185x14x2 - x58x14x2 - x74x14x2 - x43x14x2 - x139x14x2 - x124x14x2 - x17x14x2 - x60x14x2 - x170x14x2 - x81x14x2 = 0
2y138 - x118x138x3 - x69x138x3 - x2x138x3 - x160x138x3 - x124x138x3 - x23x138x3 - x81x138x3 = 0
1y182 - x185x182x2 - x58x182x2 - x74x182x2 - x43x182x2 - x139x182x2 - x124x182x2 - x17x182x2 - x60x182x2 - x170x182x2 - x81x182x2 = 0
1y182 - x118x182x3 - x69x182x3 - x2x182x3 - x160x182x3 - x124x182x3 - x23x182x3 - x81x182x3 - x138x182x3 = 0
2y127 - x118x127x3 - x69x127x3 - x2x127x3 - x160x127x3 - x124x127x3 - x23x127x3 - x81x127x3 - x138x127x3 - x182x127x3 = 0
1y52 - x118x52x1 - x69x52x1 - x185x52x1 - x58x52x1 - x74x52x1 - x2x52x1 - x139x52x1 - x17x52x1 - x60x52x1 - x3x52x1 - x186x52x1 = 0
1y52 - x185x52x2 - x58x52x2 - x74x52x2 - x43x52x2 - x139x52x2 - x124x52x2 - x17x52x2 - x60x52x2 - x170x52x2 - x81x52x2 - x14x52x2 = 0
2y91 - x118x91x3 - x69x91x3 - x2x91x3 - x160x91x3 - x124x91x3 - x23x91x3 - x81x91x3 - x138x91x3 - x182x91x3 - x127x91x3 = 0
2y171 - x118x171x1 - x69x171x1 - x185x171x1 - x58x171x1 - x74x171x1 - x2x171x1 - x139x171x1 - x17x171x1 - x60x171x1 - x3x171x1 - x186x171x1 = 0
1y31 - x118x31x1 - x69x31x1 - x185x31x1 - x58x31x1 - x74x31x1 - x2x31x1 - x139x31x1 - x17x31x1 - x60x31x1 - x3x31x1 - x186x31x1 = 0
1y31 - x118x31x3 - x69x31x3 - x2x31x3 - x160x31x3 - x124x31x3 - x23x31x3 - x81x31x3 - x138x31x3 - x182x31x3 - x127x31x3 = 0
2y105 - x118x105x3 - x69x105x3 - x2x105x3 - x160x105x3 - x124x105x3 - x23x105x3 - x81x105x3 - x138x105x3 = 0
2y119 - x118x119x1 - x69x119x1 - x185x119x1 - x58x119x1 - x74x119x1 - x2x119x1 - x139x119x1 - x17x119x1 - x60x119x1 - x3x119x1 - x186x119x1 - x171x119x1 - x31x119x1 = 0
1y80 - x118x80x1 - x69x80x1 - x185x80x1 - x58x80x1 - x74x80x1 - x2x80x1 - x139x80x1 - x17x80x1 - x60x80x1 - x3x80x1 - x186x80x1 - x52x80x1 = 0
1y80 - x118x80x3 - x69x80x3 - x2x80x3 - x160x80x3 - x124x80x3 - x23x80x3 - x81x80x3 - x138x80x3 - x182x80x3 - x105x80x3 = 0
1y101 - x118x101x1 - x69x101x1 - x185x101x1 - x58x101x1 - x74x101x1 - x2x101x1 - x139x101x1 - x17x101x1 - x60x101x1 - x3x101x1 - x186x101x1 - x52x101x1 = 0
1y101 - x118x101x3 - x69x101x3 - x2x101x3 - x160x101x3 - x124x101x3 - x23x101x3 - x81x101x3 - x138x101x3 - x182x101x3 - x127x101x3 - x105x101x3 = 0
1y89 - x185x89x2 - x58x89x2 - x74x89x2 - x43x89x2 - x139x89x2 - x124x89x2 - x17x89x2 - x60x89x2 - x170x89x2 - x81x89x2 - x14x89x2 - x182x89x2 - x52x89x2 = 0
1y89 - x118x89x3 - x69x89x3 - x2x89x3 - x160x89x3 - x124x89x3 - x23x89x3 - x81x89x3 - x138x89x3 - x182x89x3 - x127x89x3 - x105x89x3 - x80x89x3 - x101x89x3 = 0
2y77 - x185x77x2 - x58x77x2 - x74x77x2 - x43x77x2 - x139x77x2 - x124x77x2 - x17x77x2 - x60x77x2 - x170x77x2 - x81x77x2 - x14x77x2 - x182x77x2 - x52x77x2 - x89x77x2 = 0

s118 - s60 + 6.479812z118z60z1 <= 4.84
s118 - s3 + 6.481510z118z3z1 <= 4.84
s118 - s186 + 6.509955z118z186z1 <= 4.84
s118 - s81 + 6.474094z118z81z3 <= 4.84
s118 - s138 + 6.732161z118z138z3 <= 4.84
s118 - s182 + 6.740782z118z182z3 <= 4.84
s118 - s127 + 6.750859z118z127z3 <= 4.84
s118 - s52 + 6.527814z118z52z1 <= 4.84
s118 - s91 + 6.792436z118z91z3 <= 4.84
s118 - s171 + 6.781601z118z171z1 <= 4.84
s118 - s31 + 6.790686z118z31z1 <= 4.84
s118 - s31 + 6.790686z118z31z3 <= 4.84
s118 - s105 + 6.503795z118z105z3 <= 4.84
s118 - s119 + 6.800980z118z119z1 <= 4.84
s118 - s80 + 6.467193z118z80z1 <= 4.84
s118 - s80 + 6.467193z118z80z3 <= 4.84
s118 - s101 + 6.492458z118z101z1 <= 4.84
s118 - s101 + 6.492458z118z101z3 <= 4.84
s118 - s89 + 6.474094z118z89z3 <= 4.84
s69 - s60 + 6.675877z69z60z1 <= 5.21
s69 - s3 + 6.678393z69z3z1 <= 5.21
s69 - s186 + 6.713102z69z186z1 <= 5.21
s69 - s81 + 6.677398z69z81z3 <= 5.21
s69 - s138 + 6.936685z69z138z3 <= 5.21
s69 - s182 + 6.945671z69z182z3 <= 5.21
s69 - s127 + 6.954518z69z127z3 <= 5.21
s69 - s52 + 6.756316z69z52z1 <= 5.21
s69 - s91 + 6.991751z69z91z3 <= 5.21
s69 - s171 + 6.987594z69z171z1 <= 5.21
s69 - s31 + 6.993367z69z31z1 <= 5.21
s69 - s31 + 6.993367z69z31z3 <= 5.21
s69 - s105 + 6.732613z69z105z3 <= 5.21
s69 - s119 + 7.002580z69z119z1 <= 5.21
s69 - s80 + 6.694915z69z80z1 <= 5.21
s69 - s80 + 6.694915z69z80z3 <= 5.21
s69 - s101 + 6.723015z69z101z1 <= 5.21
s69 - s101 + 6.723015z69z101z3 <= 5.21
s69 - s89 + 6.704160z69z89z3 <= 5.21
s185 - s60 + 6.537718z185z60z1 <= 4.96
s185 - s60 + 6.537718z185z60z2 <= 4.96
s185 - s170 + 6.570104z185z170z2 <= 4.96
s185 - s3 + 6.539281z185z3z1 <= 4.96
s185 - s186 + 6.566950z185z186z1 <= 4.96
s185 - s81 + 6.531115z185z81z2 <= 4.96
s185 - s14 + 6.468390z185z14z2 <= 4.96
s185 - s182 + 6.797505z185z182z2 <= 4.96
s185 - s52 + 6.584508z185z52z1 <= 4.96
s185 - s52 + 6.584508z185z52z2 <= 4.96
s185 - s171 + 6.838249z185z171z1 <= 4.96
s185 - s31 + 6.847540z185z31z1 <= 4.96
s185 - s119 + 6.857919z185z119z1 <= 4.96
s185 - s80 + 6.523809z185z80z1 <= 4.96
s185 - s101 + 6.549209z185z101z1 <= 4.96
s185 - s89 + 6.530806z185z89z2 <= 4.96
s185 - s77 + 6.547259z185z77z2 <= 4.96
s58 - s60 + 6.895452z58z60z1 <= 5.46
s58 - s60 + 6.895452z58z60z2 <= 5.46
s58 - s170 + 6.915992z58z170z2 <= 5.46
s58 - s3 + 6.901923z58z3z1 <= 5.46
s58 - s186 + 6.951190z58z186z1 <= 5.46
s58 - s81 + 6.945643z58z81z2 <= 5.46
s58 - s14 + 6.924885z58z14z2 <= 5.46
s58 - s182 + 7.059714z58z182z2 <= 5.46
s58 - s52 + 7.097769z58z52z1 <= 5.46
s58 - s52 + 7.097769z58z52z2 <= 5.46
s58 - s171 + 7.092766z58z171z1 <= 5.46
s58 - s31 + 7.071951z58z31z1 <= 5.46
s58 - s119 + 7.069314z58z119z1 <= 5.46
s58 - s80 + 7.071302z58z80z1 <= 5.46
s58 - s101 + 7.093010z58z101z1 <= 5.46
s58 - s89 + 7.084021z58z89z2 <= 5.46
s58 - s77 + 7.101254z58z77z2 <= 5.46
s74 - s60 + 6.683240z74z60z1 <= 5.25
s74 - s60 + 6.683240z74z60z2 <= 5.25
s74 - s170 + 6.704609z74z170z2 <= 5.25
s74 - s3 + 6.689751z74z3z1 <= 5.25
s74 - s186 + 6.739616z74z186z1 <= 5.25
s74 - s81 + 6.733226z74z81z2 <= 5.25
s74 - s14 + 6.711059z74z14z2 <= 5.25
s74 - s182 + 6.853180z74z182z2 <= 5.25
s74 - s52 + 6.885802z74z52z1 <= 5.25
s74 - s52 + 6.885802z74z52z2 <= 5.25
s74 - s171 + 6.886854z74z171z1 <= 5.25
s74 - s31 + 6.866654z74z31z1 <= 5.25
s74 - s119 + 6.864368z74z119z1 <= 5.25
s74 - s80 + 6.858341z74z80z1 <= 5.25
s74 - s101 + 6.880406z74z101z1 <= 5.25
s74 - s89 + 6.871128z74z89z2 <= 5.25
s74 - s77 + 6.888570z74z77z2 <= 5.25
s2 - s60 + 6.924754z2z60z1 <= 5.50
s2 - s3 + 6.931237z2z3z1 <= 5.50
s2 - s186 + 6.980698z2z186z1 <= 5.50
s2 - s81 + 6.974891z2z81z3 <= 5.50
s2 - s138 + 7.083923z2z138z3 <= 5.50
s2 - s182 + 7.091780z2z182z3 <= 5.50
s2 - s127 + 7.088129z2z127z3 <= 5.50
s2 - s52 + 7.127155z2z52z1 <= 5.50
s2 - s91 + 7.077154z2z91z3 <= 5.50
s2 - s171 + 7.125240z2z171z1 <= 5.50
s2 - s31 + 7.104842z2z31z1 <= 5.50
s2 - s31 + 7.104842z2z31z3 <= 5.50
s2 - s105 + 7.118779z2z105z3 <= 5.50
s2 - s119 + 7.102452z2z119z1 <= 5.50
s2 - s80 + 7.100421z2z80z1 <= 5.50
s2 - s80 + 7.100421z2z80z3 <= 5.50
s2 - s101 + 7.122214z2z101z1 <= 5.50
s2 - s101 + 7.122214z2z101z3 <= 5.50
s2 - s89 + 7.113155z2z89z3 <= 5.50
s43 - s60 + 6.737700z43z60z2 <= 5.32
s43 - s170 + 6.757451z43z170z2 <= 5.32
s43 - s81 + 6.788071z43z81z2 <= 5.32
s43 - s14 + 6.769065z43z14z2 <= 5.32
s43 - s182 + 6.898707z43z182z2 <= 5.32
s43 - s52 + 6.939680z43z52z2 <= 5.32
s43 - s89 + 6.926909z43z89z2 <= 5.32
s43 - s77 + 6.943902z43z77z2 <= 5.32
s160 - s81 + 6.736993z160z81z3 <= 5.27
s160 - s138 + 6.845841z160z138z3 <= 5.27
s160 - s182 + 6.853721z160z182z3 <= 5.27
s160 - s127 + 6.850142z160z127z3 <= 5.27
s160 - s91 + 6.839544z160z91z3 <= 5.27
s160 - s31 + 6.867072z160z31z3 <= 5.27
s160 - s105 + 6.880861z160z105z3 <= 5.27
s160 - s80 + 6.862706z160z80z3 <= 5.27
s160 - s101 + 6.884370z160z101z3 <= 5.27
s160 - s89 + 6.875413z160z89z3 <= 5.27
s139 - s60 + 6.671164z139z60z1 <= 5.26
s139 - s60 + 6.671164z139z60z2 <= 5.26
s139 - s170 + 6.692748z139z170z2 <= 5.26
s139 - s3 + 6.677682z139z3z1 <= 5.26
s139 - s186 + 6.727692z139z186z1 <= 5.26
s139 - s81 + 6.721109z139z81z2 <= 5.26
s139 - s14 + 6.698893z139z14z2 <= 5.26
s139 - s182 + 6.844025z139z182z2 <= 5.26
s139 - s52 + 6.873765z139z52z1 <= 5.26
s139 - s52 + 6.873765z139z52z2 <= 5.26
s139 - s171 + 6.878180z139z171z1 <= 5.26
s139 - s31 + 6.858503z139z31z1 <= 5.26
s139 - s119 + 6.856525z139z119z1 <= 5.26
s139 - s80 + 6.846158z139z80z1 <= 5.26
s139 - s101 + 6.868257z139z101z1 <= 5.26
s139 - s89 + 6.858950z139z89z2 <= 5.26
s139 - s77 + 6.876410z139z77z2 <= 5.26
s124 - s60 + 6.747708z124z60z2 <= 5.33
s124 - s170 + 6.766223z124z170z2 <= 5.33
s124 - s81 + 6.798283z124z81z2 <= 5.33
s124 - s81 + 6.798283z124z81z3 <= 5.33
s124 - s14 + 6.781696z124z14z2 <= 5.33
s124 - s138 + 6.894562z124z138z3 <= 5.33
s124 - s182 + 6.902206z124z182z2 <= 5.33
s124 - s182 + 6.902206z124z182z3 <= 5.33
s124 - s127 + 6.898003z124z127z3 <= 5.33
s124 - s52 + 6.949010z124z52z2 <= 5.33
s124 - s91 + 6.884916z124z91z3 <= 5.33
s124 - s31 + 6.913370z124z31z3 <= 5.33
s124 - s105 + 6.941772z124z105z3 <= 5.33
s124 - s80 + 6.925150z124z80z3 <= 5.33
s124 - s101 + 6.945856z124z101z3 <= 5.33
s124 - s89 + 6.937659z124z89z2 <= 5.33
s124 - s89 + 6.937659z124z89z3 <= 5.33
s124 - s77 + 6.954303z124z77z2 <= 5.33
s23 - s81 + 6.778136z23z81z3 <= 5.44
s23 - s138 + 7.036922z23z138z3 <= 5.44
s23 - s182 + 7.045985z23z182z3 <= 5.44
s23 - s127 + 7.054514z23z127z3 <= 5.44
s23 - s91 + 7.090940z23z91z3 <= 5.44
s23 - s31 + 7.093097z23z31z3 <= 5.44
s23 - s105 + 6.846074z23z105z3 <= 5.44
s23 - s80 + 6.808593z23z80z3 <= 5.44
s23 - s101 + 6.837827z23z101z3 <= 5.44
s23 - s89 + 6.819142z23z89z3 <= 5.44
s17 - s60 + 6.597968z17z60z1 <= 5.26
s17 - s60 + 6.597968z17z60z2 <= 5.26
s17 - s170 + 6.632977z17z170z2 <= 5.26
s17 - s3 + 6.600523z17z3z1 <= 5.26
s17 - s186 + 6.636239z17z186z1 <= 5.26
s17 - s81 + 6.600718z17z81z2 <= 5.26
s17 - s14 + 6.534551z17z14z2 <= 5.26
s17 - s182 + 6.868678z17z182z2 <= 5.26
s17 - s52 + 6.690246z17z52z1 <= 5.26
s17 - s52 + 6.690246z17z52z2 <= 5.26
s17 - s171 + 6.910778z17z171z1 <= 5.26
s17 - s31 + 6.915914z17z31z1 <= 5.26
s17 - s119 + 6.924965z17z119z1 <= 5.26
s17 - s80 + 6.629624z17z80z1 <= 5.26
s17 - s101 + 6.658776z17z101z1 <= 5.26
s17 - s89 + 6.640059z17z89z2 <= 5.26
s17 - s77 + 6.660000z17z77z2 <= 5.26
s60 - s3 + 8.286667z60z3z1 <= 7.28
s60 - s186 + 8.341464z60z186z1 <= 7.28
s60 - s81 + 8.330772z60z81z2 <= 7.28
s60 - s14 + 8.353636z60z14z2 <= 7.28
s60 - s182 + 8.556004z60z182z2 <= 7.28
s60 - s52 + 8.482759z60z52z1 <= 7.28
s60 - s52 + 8.482759z60z52z2 <= 7.28
s60 - s171 + 8.598678z60z171z1 <= 7.28
s60 - s31 + 8.600139z60z31z1 <= 7.28
s60 - s119 + 8.608295z60z119z1 <= 7.28
s60 - s80 + 8.458885z60z80z1 <= 7.28
s60 - s101 + 8.478214z60z101z1 <= 7.28
s60 - s89 + 8.470904z60z89z2 <= 7.28
s60 - s77 + 8.486774z60z77z2 <= 7.28
s170 - s81 + 8.330772z170z81z2 <= 7.28
s170 - s14 + 8.381981z170z14z2 <= 7.28
s170 - s182 + 8.518701z170z182z2 <= 7.28
s170 - s52 + 8.463425z170z52z2 <= 7.28
s170 - s89 + 8.461353z170z89z2 <= 7.28
s170 - s77 + 8.474365z170z77z2 <= 7.28
s3 - s186 + 8.364975z3z186z1 <= 7.31
s3 - s52 + 8.506186z3z52z1 <= 7.31
s3 - s171 + 8.624678z3z171z1 <= 7.31
s3 - s31 + 8.626719z3z31z1 <= 7.31
s3 - s119 + 8.635098z3z119z1 <= 7.31
s3 - s80 + 8.482948z3z80z1 <= 7.31
s3 - s101 + 8.501949z3z101z1 <= 7.31
s186 - s52 + 8.577573z186z52z1 <= 7.43
s186 - s171 + 8.704550z186z171z1 <= 7.43
s186 - s31 + 8.711030z186z31z1 <= 7.43
s186 - s119 + 8.721051z186z119z1 <= 7.43
s186 - s80 + 8.566789z186z80z1 <= 7.43
s186 - s101 + 8.579815z186z101z1 <= 7.43
s81 - s14 + 8.576667z81z14z2 <= 7.51
s81 - s138 + 8.769402z81z138z3 <= 7.51
s81 - s182 + 8.778328z81z182z2 <= 7.51
s81 - s182 + 8.778328z81z182z3 <= 7.51
s81 - s127 + 8.787529z81z127z3 <= 7.51
s81 - s52 + 8.663912z81z52z2 <= 7.51
s81 - s91 + 8.828678z81z91z3 <= 7.51
s81 - s31 + 8.826930z81z31z3 <= 7.51
s81 - s105 + 8.653913z81z105z3 <= 7.51
s81 - s80 + 8.638236z81z80z3 <= 7.51
s81 - s101 + 8.657574z81z101z3 <= 7.51
s81 - s89 + 8.650159z81z89z2 <= 7.51
s81 - s89 + 8.650159z81z89z3 <= 7.51
s81 - s77 + 8.666063z81z77z2 <= 7.51
s14 - s52 + 8.857428z14z52z2 <= 7.66
s14 - s89 + 8.826799z14z89z2 <= 7.66
s14 - s77 + 8.846666z14z77z2 <= 7.66
s138 - s182 + 8.799428z138z182z3 <= 7.79
s138 - s127 + 8.809999z138z127z3 <= 7.79
s138 - s91 + 8.868032z138z91z3 <= 7.79
s138 - s31 + 8.850369z138z31z3 <= 7.79
s138 - s105 + 9.057997z138z105z3 <= 7.79
s138 - s80 + 9.083333z138z80z3 <= 7.79
s138 - s101 + 9.071267z138z101z3 <= 7.79
s138 - s89 + 9.083636z138z89z3 <= 7.79
s182 - s127 + 8.854907z182z127z3 <= 7.84
s182 - s91 + 8.914536z182z91z3 <= 7.84
s182 - s31 + 8.893333z182z31z3 <= 7.84
s182 - s80 + 9.140074z182z80z3 <= 7.84
s182 - s101 + 9.127363z182z101z3 <= 7.84
s182 - s89 + 9.140074z182z89z2 <= 7.84
s182 - s89 + 9.140074z182z89z3 <= 7.84
s182 - s77 + 9.134543z182z77z2 <= 7.84
s127 - s91 + 8.929628z127z91z3 <= 7.87
s127 - s31 + 8.910552z127z31z3 <= 7.87
s127 - s101 + 9.171183z127z101z3 <= 7.87
s127 - s89 + 9.183617z127z89z3 <= 7.87
s52 - s80 + 9.111464z52z80z1 <= 8.05
s52 - s101 + 9.085901z52z101z1 <= 8.05
s52 - s89 + 9.103748z52z89z2 <= 8.05
s52 - s77 + 9.090552z52z77z2 <= 8.05
s171 - s119 + 9.107141z171z119z1 <= 8.06
s31 - s119 + 9.094907z31z119z1 <= 8.08
s105 - s80 + 9.147712z105z80z3 <= 8.11
s105 - s101 + 9.123333z105z101z3 <= 8.11
s105 - s89 + 9.139814z105z89z3 <= 8.11
s80 - s89 + 9.183333z80z89z3 <= 8.17
s101 - s89 + 9.198856z101z89z3 <= 8.18
s89 - s77 + 9.231082z89z77z2 <= 8.21

x118x60x1 - 1z118z60z1 <= 0
x118x3x1 - 2z118z3z1 <= 0
x118x186x1 - 2z118z186z1 <= 0
x118x81x3 - 1z118z81z3 <= 0
x118x138x3 - 2z118z138z3 <= 0
x118x182x3 - 1z118z182z3 <= 0
x118x127x3 - 2z118z127z3 <= 0
x118x52x1 - 1z118z52z1 <= 0
x118x91x3 - 2z118z91z3 <= 0
x118x171x1 - 2z118z171z1 <= 0
x118x31x1 - 1z118z31z1 <= 0
x118x31x3 - 1z118z31z3 <= 0
x118x105x3 - 2z118z105z3 <= 0
x118x119x1 - 2z118z119z1 <= 0
x118x80x1 - 1z118z80z1 <= 0
x118x80x3 - 1z118z80z3 <= 0
x118x101x1 - 1z118z101z1 <= 0
x118x101x3 - 1z118z101z3 <= 0
x118x89x3 - 1z118z89z3 <= 0
x69x60x1 - 1z69z60z1 <= 0
x69x3x1 - 2z69z3z1 <= 0
x69x186x1 - 2z69z186z1 <= 0
x69x81x3 - 1z69z81z3 <= 0
x69x138x3 - 2z69z138z3 <= 0
x69x182x3 - 1z69z182z3 <= 0
x69x127x3 - 2z69z127z3 <= 0
x69x52x1 - 1z69z52z1 <= 0
x69x91x3 - 2z69z91z3 <= 0
x69x171x1 - 2z69z171z1 <= 0
x69x31x1 - 1z69z31z1 <= 0
x69x31x3 - 1z69z31z3 <= 0
x69x105x3 - 2z69z105z3 <= 0
x69x119x1 - 2z69z119z1 <= 0
x69x80x1 - 1z69z80z1 <= 0
x69x80x3 - 1z69z80z3 <= 0
x69x101x1 - 1z69z101z1 <= 0
x69x101x3 - 1z69z101z3 <= 0
x69x89x3 - 1z69z89z3 <= 0
x185x60x1 - 1z185z60z1 <= 0
x185x60x2 - 1z185z60z2 <= 0
x185x170x2 - 2z185z170z2 <= 0
x185x3x1 - 2z185z3z1 <= 0
x185x186x1 - 2z185z186z1 <= 0
x185x81x2 - 1z185z81z2 <= 0
x185x14x2 - 2z185z14z2 <= 0
x185x182x2 - 1z185z182z2 <= 0
x185x52x1 - 1z185z52z1 <= 0
x185x52x2 - 1z185z52z2 <= 0
x185x171x1 - 2z185z171z1 <= 0
x185x31x1 - 1z185z31z1 <= 0
x185x119x1 - 2z185z119z1 <= 0
x185x80x1 - 1z185z80z1 <= 0
x185x101x1 - 1z185z101z1 <= 0
x185x89x2 - 1z185z89z2 <= 0
x185x77x2 - 2z185z77z2 <= 0
x58x60x1 - 1z58z60z1 <= 0
x58x60x2 - 1z58z60z2 <= 0
x58x170x2 - 2z58z170z2 <= 0
x58x3x1 - 2z58z3z1 <= 0
x58x186x1 - 2z58z186z1 <= 0
x58x81x2 - 1z58z81z2 <= 0
x58x14x2 - 2z58z14z2 <= 0
x58x182x2 - 1z58z182z2 <= 0
x58x52x1 - 1z58z52z1 <= 0
x58x52x2 - 1z58z52z2 <= 0
x58x171x1 - 2z58z171z1 <= 0
x58x31x1 - 1z58z31z1 <= 0
x58x119x1 - 2z58z119z1 <= 0
x58x80x1 - 1z58z80z1 <= 0
x58x101x1 - 1z58z101z1 <= 0
x58x89x2 - 1z58z89z2 <= 0
x58x77x2 - 2z58z77z2 <= 0
x74x60x1 - 1z74z60z1 <= 0
x74x60x2 - 1z74z60z2 <= 0
x74x170x2 - 2z74z170z2 <= 0
x74x3x1 - 2z74z3z1 <= 0
x74x186x1 - 2z74z186z1 <= 0
x74x81x2 - 1z74z81z2 <= 0
x74x14x2 - 2z74z14z2 <= 0
x74x182x2 - 1z74z182z2 <= 0
x74x52x1 - 1z74z52z1 <= 0
x74x52x2 - 1z74z52z2 <= 0
x74x171x1 - 2z74z171z1 <= 0
x74x31x1 - 1z74z31z1 <= 0
x74x119x1 - 2z74z119z1 <= 0
x74x80x1 - 1z74z80z1 <= 0
x74x101x1 - 1z74z101z1 <= 0
x74x89x2 - 1z74z89z2 <= 0
x74x77x2 - 2z74z77z2 <= 0
x2x60x1 - 1z2z60z1 <= 0
x2x3x1 - 2z2z3z1 <= 0
x2x186x1 - 2z2z186z1 <= 0
x2x81x3 - 1z2z81z3 <= 0
x2x138x3 - 2z2z138z3 <= 0
x2x182x3 - 1z2z182z3 <= 0
x2x127x3 - 2z2z127z3 <= 0
x2x52x1 - 1z2z52z1 <= 0
x2x91x3 - 2z2z91z3 <= 0
x2x171x1 - 2z2z171z1 <= 0
x2x31x1 - 1z2z31z1 <= 0
x2x31x3 - 1z2z31z3 <= 0
x2x105x3 - 2z2z105z3 <= 0
x2x119x1 - 2z2z119z1 <= 0
x2x80x1 - 1z2z80z1 <= 0
x2x80x3 - 1z2z80z3 <= 0
x2x101x1 - 1z2z101z1 <= 0
x2x101x3 - 1z2z101z3 <= 0
x2x89x3 - 1z2z89z3 <= 0
x43x60x2 - 1z43z60z2 <= 0
x43x170x2 - 2z43z170z2 <= 0
x43x81x2 - 1z43z81z2 <= 0
x43x14x2 - 2z43z14z2 <= 0
x43x182x2 - 1z43z182z2 <= 0
x43x52x2 - 1z43z52z2 <= 0
x43x89x2 - 1z43z89z2 <= 0
x43x77x2 - 2z43z77z2 <= 0
x160x81x3 - 1z160z81z3 <= 0
x160x138x3 - 2z160z138z3 <= 0
x160x182x3 - 1z160z182z3 <= 0
x160x127x3 - 2z160z127z3 <= 0
x160x91x3 - 2z160z91z3 <= 0
x160x31x3 - 1z160z31z3 <= 0
x160x105x3 - 2z160z105z3 <= 0
x160x80x3 - 1z160z80z3 <= 0
x160x101x3 - 1z160z101z3 <= 0
x160x89x3 - 1z160z89z3 <= 0
x139x60x1 - 1z139z60z1 <= 0
x139x60x2 - 1z139z60z2 <= 0
x139x170x2 - 2z139z170z2 <= 0
x139x3x1 - 2z139z3z1 <= 0
x139x186x1 - 2z139z186z1 <= 0
x139x81x2 - 1z139z81z2 <= 0
x139x14x2 - 2z139z14z2 <= 0
x139x182x2 - 1z139z182z2 <= 0
x139x52x1 - 1z139z52z1 <= 0
x139x52x2 - 1z139z52z2 <= 0
x139x171x1 - 2z139z171z1 <= 0
x139x31x1 - 1z139z31z1 <= 0
x139x119x1 - 2z139z119z1 <= 0
x139x80x1 - 1z139z80z1 <= 0
x139x101x1 - 1z139z101z1 <= 0
x139x89x2 - 1z139z89z2 <= 0
x139x77x2 - 2z139z77z2 <= 0
x124x60x2 - 1z124z60z2 <= 0
x124x170x2 - 2z124z170z2 <= 0
x124x81x2 - 1z124z81z2 <= 0
x124x81x3 - 1z124z81z3 <= 0
x124x14x2 - 2z124z14z2 <= 0
x124x138x3 - 2z124z138z3 <= 0
x124x182x2 - 1z124z182z2 <= 0
x124x182x3 - 1z124z182z3 <= 0
x124x127x3 - 2z124z127z3 <= 0
x124x52x2 - 1z124z52z2 <= 0
x124x91x3 - 2z124z91z3 <= 0
x124x31x3 - 1z124z31z3 <= 0
x124x105x3 - 2z124z105z3 <= 0
x124x80x3 - 1z124z80z3 <= 0
x124x101x3 - 1z124z101z3 <= 0
x124x89x2 - 1z124z89z2 <= 0
x124x89x3 - 1z124z89z3 <= 0
x124x77x2 - 2z124z77z2 <= 0
x23x81x3 - 1z23z81z3 <= 0
x23x138x3 - 2z23z138z3 <= 0
x23x182x3 - 1z23z182z3 <= 0
x23x127x3 - 2z23z127z3 <= 0
x23x91x3 - 2z23z91z3 <= 0
x23x31x3 - 1z23z31z3 <= 0
x23x105x3 - 2z23z105z3 <= 0
x23x80x3 - 1z23z80z3 <= 0
x23x101x3 - 1z23z101z3 <= 0
x23x89x3 - 1z23z89z3 <= 0
x17x60x1 - 1z17z60z1 <= 0
x17x60x2 - 1z17z60z2 <= 0
x17x170x2 - 2z17z170z2 <= 0
x17x3x1 - 2z17z3z1 <= 0
x17x186x1 - 2z17z186z1 <= 0
x17x81x2 - 1z17z81z2 <= 0
x17x14x2 - 2z17z14z2 <= 0
x17x182x2 - 1z17z182z2 <= 0
x17x52x1 - 1z17z52z1 <= 0
x17x52x2 - 1z17z52z2 <= 0
x17x171x1 - 2z17z171z1 <= 0
x17x31x1 - 1z17z31z1 <= 0
x17x119x1 - 2z17z119z1 <= 0
x17x80x1 - 1z17z80z1 <= 0
x17x101x1 - 1z17z101z1 <= 0
x17x89x2 - 1z17z89z2 <= 0
x17x77x2 - 2z17z77z2 <= 0
x60x3x1 - 2z60z3z1 <= 0
x60x186x1 - 2z60z186z1 <= 0
x60x81x2 - 1z60z81z2 <= 0
x60x14x2 - 2z60z14z2 <= 0
x60x182x2 - 1z60z182z2 <= 0
x60x52x1 - 1z60z52z1 <= 0
x60x52x2 - 1z60z52z2 <= 0
x60x171x1 - 2z60z171z1 <= 0
x60x31x1 - 1z60z31z1 <= 0
x60x119x1 - 2z60z119z1 <= 0
x60x80x1 - 1z60z80z1 <= 0
x60x101x1 - 1z60z101z1 <= 0
x60x89x2 - 1z60z89z2 <= 0
x60x77x2 - 2z60z77z2 <= 0
x60x0x1 <= 1
x60x0x2 <= 1
x170x81x2 - 1z170z81z2 <= 0
x170x14x2 - 2z170z14z2 <= 0
x170x182x2 - 1z170z182z2 <= 0
x170x52x2 - 1z170z52z2 <= 0
x170x89x2 - 1z170z89z2 <= 0
x170x77x2 - 2z170z77z2 <= 0
x170x0x2 <= 2
x3x186x1 - 2z3z186z1 <= 0
x3x52x1 - 1z3z52z1 <= 0
x3x171x1 - 2z3z171z1 <= 0
x3x31x1 - 1z3z31z1 <= 0
x3x119x1 - 2z3z119z1 <= 0
x3x80x1 - 1z3z80z1 <= 0
x3x101x1 - 1z3z101z1 <= 0
x3x0x1 <= 2
x186x52x1 - 1z186z52z1 <= 0
x186x171x1 - 2z186z171z1 <= 0
x186x31x1 - 1z186z31z1 <= 0
x186x119x1 - 2z186z119z1 <= 0
x186x80x1 - 1z186z80z1 <= 0
x186x101x1 - 1z186z101z1 <= 0
x186x0x1 <= 2
x81x14x2 - 2z81z14z2 <= 0
x81x138x3 - 2z81z138z3 <= 0
x81x182x2 - 1z81z182z2 <= 0
x81x182x3 - 1z81z182z3 <= 0
x81x127x3 - 2z81z127z3 <= 0
x81x52x2 - 1z81z52z2 <= 0
x81x91x3 - 2z81z91z3 <= 0
x81x31x3 - 1z81z31z3 <= 0
x81x105x3 - 2z81z105z3 <= 0
x81x80x3 - 1z81z80z3 <= 0
x81x101x3 - 1z81z101z3 <= 0
x81x89x2 - 1z81z89z2 <= 0
x81x89x3 - 1z81z89z3 <= 0
x81x77x2 - 2z81z77z2 <= 0
x81x0x2 <= 1
x81x0x3 <= 1
x14x52x2 - 1z14z52z2 <= 0
x14x89x2 - 1z14z89z2 <= 0
x14x77x2 - 2z14z77z2 <= 0
x14x0x2 <= 2
x138x182x3 - 1z138z182z3 <= 0
x138x127x3 - 2z138z127z3 <= 0
x138x91x3 - 2z138z91z3 <= 0
x138x31x3 - 1z138z31z3 <= 0
x138x105x3 - 2z138z105z3 <= 0
x138x80x3 - 1z138z80z3 <= 0
x138x101x3 - 1z138z101z3 <= 0
x138x89x3 - 1z138z89z3 <= 0
x138x0x3 <= 2
x182x127x3 - 2z182z127z3 <= 0
x182x91x3 - 2z182z91z3 <= 0
x182x31x3 - 1z182z31z3 <= 0
x182x80x3 - 1z182z80z3 <= 0
x182x101x3 - 1z182z101z3 <= 0
x182x89x2 - 1z182z89z2 <= 0
x182x89x3 - 1z182z89z3 <= 0
x182x77x2 - 2z182z77z2 <= 0
x182x0x2 <= 1
x182x0x3 <= 1
x127x91x3 - 2z127z91z3 <= 0
x127x31x3 - 1z127z31z3 <= 0
x127x101x3 - 1z127z101z3 <= 0
x127x89x3 - 1z127z89z3 <= 0
x127x0x3 <= 2
x52x80x1 - 1z52z80z1 <= 0
x52x101x1 - 1z52z101z1 <= 0
x52x89x2 - 1z52z89z2 <= 0
x52x77x2 - 2z52z77z2 <= 0
x52x0x1 <= 1
x52x0x2 <= 1
x91x0x3 <= 2
x171x119x1 - 2z171z119z1 <= 0
x171x0x1 <= 2
x31x119x1 - 2z31z119z1 <= 0
x31x0x1 <= 1
x31x0x3 <= 1
x105x80x3 - 1z105z80z3 <= 0
x105x101x3 - 1z105z101z3 <= 0
x105x89x3 - 1z105z89z3 <= 0
x105x0x3 <= 2
x119x0x1 <= 2
x80x89x3 - 1z80z89z3 <= 0
x80x0x1 <= 1
x80x0x3 <= 1
x101x89x3 - 1z101z89z3 <= 0
x101x0x1 <= 1
x101x0x3 <= 1
x89x77x2 - 2z89z77z2 <= 0
x89x0x2 <= 1
x89x0x3 <= 1
x77x0x2 <= 2

Bounds
s118 = 4.839499
s69 = 5.209162
s185 = 4.955576
s58 = 5.455654
s74 = 5.252995
s2 = 5.499496
s43 = 5.315536
s160 = 5.274488
s139 = 5.261883
s124 = 5.334482
s23 = 5.443140
s17 = 5.260000
6.280000 <= s60 <= 7.280000
6.280000 <= s170 <= 7.280000
6.310000 <= s3 <= 7.310000
6.430000 <= s186 <= 7.430000
6.510000 <= s81 <= 7.510000
6.660000 <= s14 <= 7.660000
6.790000 <= s138 <= 7.790000
6.840000 <= s182 <= 7.840000
6.870000 <= s127 <= 7.870000
7.050000 <= s52 <= 8.050000
7.050000 <= s91 <= 8.050000
7.060000 <= s171 <= 8.060000
7.080000 <= s31 <= 8.080000
7.110000 <= s105 <= 8.110000
7.130000 <= s119 <= 8.130000
7.170000 <= s80 <= 8.170000
7.180000 <= s101 <= 8.180000
7.210000 <= s89 <= 8.210000
7.240000 <= s77 <= 8.240000

General
x118x60x1 x118x3x1 x118x186x1 x118x81x3 x118x138x3 x118x182x3 x118x127x3 x118x52x1 x118x91x3 x118x171x1 x118x31x1 x118x31x3 x118x105x3 x118x119x1 x118x80x1 x118x80x3 x118x101x1 x118x101x3 x118x89x3 
x69x60x1 x69x3x1 x69x186x1 x69x81x3 x69x138x3 x69x182x3 x69x127x3 x69x52x1 x69x91x3 x69x171x1 x69x31x1 x69x31x3 x69x105x3 x69x119x1 x69x80x1 x69x80x3 x69x101x1 x69x101x3 x69x89x3 
x185x60x1 x185x60x2 x185x170x2 x185x3x1 x185x186x1 x185x81x2 x185x14x2 x185x182x2 x185x52x1 x185x52x2 x185x171x1 x185x31x1 x185x119x1 x185x80x1 x185x101x1 x185x89x2 x185x77x2 
x58x60x1 x58x60x2 x58x170x2 x58x3x1 x58x186x1 x58x81x2 x58x14x2 x58x182x2 x58x52x1 x58x52x2 x58x171x1 x58x31x1 x58x119x1 x58x80x1 x58x101x1 x58x89x2 x58x77x2 
x74x60x1 x74x60x2 x74x170x2 x74x3x1 x74x186x1 x74x81x2 x74x14x2 x74x182x2 x74x52x1 x74x52x2 x74x171x1 x74x31x1 x74x119x1 x74x80x1 x74x101x1 x74x89x2 x74x77x2 
x2x60x1 x2x3x1 x2x186x1 x2x81x3 x2x138x3 x2x182x3 x2x127x3 x2x52x1 x2x91x3 x2x171x1 x2x31x1 x2x31x3 x2x105x3 x2x119x1 x2x80x1 x2x80x3 x2x101x1 x2x101x3 x2x89x3 
x43x60x2 x43x170x2 x43x81x2 x43x14x2 x43x182x2 x43x52x2 x43x89x2 x43x77x2 
x160x81x3 x160x138x3 x160x182x3 x160x127x3 x160x91x3 x160x31x3 x160x105x3 x160x80x3 x160x101x3 x160x89x3 
x139x60x1 x139x60x2 x139x170x2 x139x3x1 x139x186x1 x139x81x2 x139x14x2 x139x182x2 x139x52x1 x139x52x2 x139x171x1 x139x31x1 x139x119x1 x139x80x1 x139x101x1 x139x89x2 x139x77x2 
x124x60x2 x124x170x2 x124x81x2 x124x81x3 x124x14x2 x124x138x3 x124x182x2 x124x182x3 x124x127x3 x124x52x2 x124x91x3 x124x31x3 x124x105x3 x124x80x3 x124x101x3 x124x89x2 x124x89x3 x124x77x2 
x23x81x3 x23x138x3 x23x182x3 x23x127x3 x23x91x3 x23x31x3 x23x105x3 x23x80x3 x23x101x3 x23x89x3 
x17x60x1 x17x60x2 x17x170x2 x17x3x1 x17x186x1 x17x81x2 x17x14x2 x17x182x2 x17x52x1 x17x52x2 x17x171x1 x17x31x1 x17x119x1 x17x80x1 x17x101x1 x17x89x2 x17x77x2 
x60x3x1 x60x186x1 x60x81x2 x60x14x2 x60x182x2 x60x52x1 x60x52x2 x60x171x1 x60x31x1 x60x119x1 x60x80x1 x60x101x1 x60x89x2 x60x77x2 x60x0x1 x60x0x2 
x170x81x2 x170x14x2 x170x182x2 x170x52x2 x170x89x2 x170x77x2 x170x0x2 
x3x186x1 x3x52x1 x3x171x1 x3x31x1 x3x119x1 x3x80x1 x3x101x1 x3x0x1 
x186x52x1 x186x171x1 x186x31x1 x186x119x1 x186x80x1 x186x101x1 x186x0x1 
x81x14x2 x81x138x3 x81x182x2 x81x182x3 x81x127x3 x81x52x2 x81x91x3 x81x31x3 x81x105x3 x81x80x3 x81x101x3 x81x89x2 x81x89x3 x81x77x2 x81x0x2 x81x0x3 
x14x52x2 x14x89x2 x14x77x2 x14x0x2 
x138x182x3 x138x127x3 x138x91x3 x138x31x3 x138x105x3 x138x80x3 x138x101x3 x138x89x3 x138x0x3 
x182x127x3 x182x91x3 x182x31x3 x182x80x3 x182x101x3 x182x89x2 x182x89x3 x182x77x2 x182x0x2 x182x0x3 
x127x91x3 x127x31x3 x127x101x3 x127x89x3 x127x0x3 
x52x80x1 x52x101x1 x52x89x2 x52x77x2 x52x0x1 x52x0x2 
x91x0x3 
x171x119x1 x171x0x1 
x31x119x1 x31x0x1 x31x0x3 
x105x80x3 x105x101x3 x105x89x3 x105x0x3 
x119x0x1 
x80x89x3 x80x0x1 x80x0x3 
x101x89x3 x101x0x1 x101x0x3 
x89x77x2 x89x0x2 x89x0x3 
x77x0x2 

Binaries
y60 y170 y3 y186 y81 y14 y138 y182 y127 y52 y91 y171 y31 y105 y119 y80 y101 y89 y77 
z118z60z1 z118z3z1 z118z186z1 z118z81z3 z118z138z3 z118z182z3 z118z127z3 z118z52z1 z118z91z3 z118z171z1 z118z31z1 z118z31z3 z118z105z3 z118z119z1 z118z80z1 z118z80z3 z118z101z1 z118z101z3 z118z89z3 
z69z60z1 z69z3z1 z69z186z1 z69z81z3 z69z138z3 z69z182z3 z69z127z3 z69z52z1 z69z91z3 z69z171z1 z69z31z1 z69z31z3 z69z105z3 z69z119z1 z69z80z1 z69z80z3 z69z101z1 z69z101z3 z69z89z3 
z185z60z1 z185z60z2 z185z170z2 z185z3z1 z185z186z1 z185z81z2 z185z14z2 z185z182z2 z185z52z1 z185z52z2 z185z171z1 z185z31z1 z185z119z1 z185z80z1 z185z101z1 z185z89z2 z185z77z2 
z58z60z1 z58z60z2 z58z170z2 z58z3z1 z58z186z1 z58z81z2 z58z14z2 z58z182z2 z58z52z1 z58z52z2 z58z171z1 z58z31z1 z58z119z1 z58z80z1 z58z101z1 z58z89z2 z58z77z2 
z74z60z1 z74z60z2 z74z170z2 z74z3z1 z74z186z1 z74z81z2 z74z14z2 z74z182z2 z74z52z1 z74z52z2 z74z171z1 z74z31z1 z74z119z1 z74z80z1 z74z101z1 z74z89z2 z74z77z2 
z2z60z1 z2z3z1 z2z186z1 z2z81z3 z2z138z3 z2z182z3 z2z127z3 z2z52z1 z2z91z3 z2z171z1 z2z31z1 z2z31z3 z2z105z3 z2z119z1 z2z80z1 z2z80z3 z2z101z1 z2z101z3 z2z89z3 
z43z60z2 z43z170z2 z43z81z2 z43z14z2 z43z182z2 z43z52z2 z43z89z2 z43z77z2 
z160z81z3 z160z138z3 z160z182z3 z160z127z3 z160z91z3 z160z31z3 z160z105z3 z160z80z3 z160z101z3 z160z89z3 
z139z60z1 z139z60z2 z139z170z2 z139z3z1 z139z186z1 z139z81z2 z139z14z2 z139z182z2 z139z52z1 z139z52z2 z139z171z1 z139z31z1 z139z119z1 z139z80z1 z139z101z1 z139z89z2 z139z77z2 
z124z60z2 z124z170z2 z124z81z2 z124z81z3 z124z14z2 z124z138z3 z124z182z2 z124z182z3 z124z127z3 z124z52z2 z124z91z3 z124z31z3 z124z105z3 z124z80z3 z124z101z3 z124z89z2 z124z89z3 z124z77z2 
z23z81z3 z23z138z3 z23z182z3 z23z127z3 z23z91z3 z23z31z3 z23z105z3 z23z80z3 z23z101z3 z23z89z3 
z17z60z1 z17z60z2 z17z170z2 z17z3z1 z17z186z1 z17z81z2 z17z14z2 z17z182z2 z17z52z1 z17z52z2 z17z171z1 z17z31z1 z17z119z1 z17z80z1 z17z101z1 z17z89z2 z17z77z2 
z60z3z1 z60z186z1 z60z81z2 z60z14z2 z60z182z2 z60z52z1 z60z52z2 z60z171z1 z60z31z1 z60z119z1 z60z80z1 z60z101z1 z60z89z2 z60z77z2 
z170z81z2 z170z14z2 z170z182z2 z170z52z2 z170z89z2 z170z77z2 
z3z186z1 z3z52z1 z3z171z1 z3z31z1 z3z119z1 z3z80z1 z3z101z1 
z186z52z1 z186z171z1 z186z31z1 z186z119z1 z186z80z1 z186z101z1 
z81z14z2 z81z138z3 z81z182z2 z81z182z3 z81z127z3 z81z52z2 z81z91z3 z81z31z3 z81z105z3 z81z80z3 z81z101z3 z81z89z2 z81z89z3 z81z77z2 
z14z52z2 z14z89z2 z14z77z2 
z138z182z3 z138z127z3 z138z91z3 z138z31z3 z138z105z3 z138z80z3 z138z101z3 z138z89z3 
z182z127z3 z182z91z3 z182z31z3 z182z80z3 z182z101z3 z182z89z2 z182z89z3 z182z77z2 
z127z91z3 z127z31z3 z127z101z3 z127z89z3 
z52z80z1 z52z101z1 z52z89z2 z52z77z2 

z171z119z1 
z31z119z1 
z105z80z3 z105z101z3 z105z89z3 

z80z89z3 
z101z89z3 
z89z77z2 


End